NAME: random17
TYPE: TSP
COMMENT: random17
DIMENSION: 17
EDGE_WEIGHT_TYPE: EUC_2D
NODE_COORD_SECTION
1 29.46650026871097 53.05867556052941
2 19.152078694749484 6.790035819129137
3 78.69854599999132 65.63335217758555
4 63.75208960436358 57.5602893753034
5 3.906291618886648 35.781360448354896
6 94.56831868184075 6.004468031538535
7 86.4042103546211 87.72905261480302
8 5.119366562045369 65.24186154656549
9 55.17513686348753 59.7513253239051
10 48.35286243100021 28.29881608569912
11 29.772571830177164 56.15089053263611
12 39.604743604702655 78.87007096788996
13 41.84843853458769 14.390392077532788
14 15.090669442067705 5.524135021582377
15 71.80371937036458 29.231735450413854
16 19.877387220034304 83.1363922310521
17 56.7991119724631 8.233974921248077
EOF